21° run output:
{
    "Function": "euclidB500.tsp",
    "Problem dimension": [
        381,
        298,
        7,
        81,
        365,
        100,
        182,
        478,
        308,
        287,
        89,
        471,
        301,
        104,
        55,
        450,
        321,
        282,
        480,
        484,
        35,
        189,
        151,
        429,
        29,
        195,
        185,
        415,
        345,
        324,
        258,
        187,
        213,
        442,
        368,
        118,
        428,
        439,
        353,
        435,
        163,
        394,
        117,
        17,
        68,
        457,
        107,
        391,
        109,
        264,
        224,
        155,
        44,
        343,
        397,
        482,
        170,
        266,
        147,
        24,
        188,
        179,
        422,
        128,
        240,
        138,
        92,
        244,
        50,
        290,
        465,
        53,
        268,
        43,
        80,
        477,
        408,
        70,
        407,
        351,
        438,
        447,
        121,
        377,
        493,
        303,
        54,
        460,
        255,
        221,
        228,
        64,
        331,
        173,
        315,
        76,
        145,
        399,
        454,
        358,
        322,
        209,
        259,
        21,
        165,
        389,
        329,
        61,
        354,
        115,
        433,
        265,
        144,
        458,
        250,
        137,
        299,
        143,
        401,
        139,
        361,
        28,
        217,
        420,
        79,
        293,
        459,
        215,
        403,
        382,
        248,
        472,
        390,
        11,
        207,
        274,
        210,
        67,
        235,
        405,
        49,
        162,
        272,
        142,
        82,
        295,
        375,
        300,
        288,
        140,
        332,
        430,
        402,
        234,
        306,
        466,
        4,
        126,
        330,
        348,
        325,
        271,
        286,
        169,
        432,
        474,
        310,
        426,
        73,
        388,
        339,
        42,
        347,
        90,
        245,
        59,
        387,
        242,
        483,
        285,
        9,
        327,
        202,
        338,
        254,
        386,
        247,
        479,
        238,
        305,
        177,
        292,
        86,
        103,
        445,
        141,
        74,
        105,
        77,
        270,
        178,
        252,
        219,
        400,
        193,
        191,
        41,
        65,
        499,
        2,
        211,
        253,
        495,
        349,
        192,
        223,
        231,
        12,
        201,
        333,
        222,
        359,
        110,
        490,
        356,
        18,
        159,
        38,
        489,
        473,
        373,
        119,
        95,
        168,
        314,
        267,
        307,
        279,
        294,
        312,
        273,
        441,
        6,
        379,
        463,
        437,
        99,
        464,
        131,
        197,
        196,
        46,
        113,
        425,
        23,
        444,
        413,
        243,
        262,
        468,
        161,
        341,
        148,
        56,
        423,
        62,
        8,
        419,
        66,
        309,
        27,
        63,
        424,
        98,
        452,
        226,
        120,
        427,
        75,
        45,
        203,
        360,
        13,
        498,
        418,
        304,
        146,
        475,
        326,
        257,
        69,
        205,
        384,
        116,
        232,
        125,
        451,
        497,
        156,
        114,
        494,
        93,
        200,
        108,
        461,
        263,
        260,
        378,
        32,
        16,
        481,
        275,
        124,
        60,
        456,
        476,
        249,
        371,
        10,
        36,
        133,
        153,
        448,
        172,
        455,
        233,
        181,
        1,
        302,
        3,
        230,
        34,
        297,
        132,
        383,
        154,
        469,
        85,
        134,
        311,
        150,
        296,
        91,
        33,
        158,
        5,
        350,
        355,
        199,
        436,
        19,
        135,
        470,
        396,
        337,
        52,
        392,
        364,
        335,
        87,
        40,
        367,
        164,
        313,
        167,
        449,
        149,
        152,
        136,
        370,
        174,
        317,
        26,
        256,
        276,
        281,
        269,
        411,
        130,
        369,
        280,
        160,
        180,
        20,
        220,
        48,
        175,
        434,
        176,
        261,
        216,
        421,
        157,
        88,
        246,
        31,
        443,
        277,
        101,
        414,
        39,
        190,
        487,
        183,
        344,
        204,
        416,
        374,
        362,
        112,
        323,
        227,
        393,
        47,
        320,
        208,
        214,
        237,
        127,
        462,
        289,
        431,
        404,
        22,
        283,
        409,
        102,
        94,
        492,
        453,
        78,
        84,
        96,
        372,
        410,
        129,
        111,
        225,
        357,
        14,
        363,
        184,
        496,
        398,
        166,
        417,
        239,
        488,
        122,
        30,
        380,
        316,
        171,
        241,
        336,
        123,
        25,
        194,
        37,
        15,
        97,
        346,
        229,
        385,
        440,
        0,
        218,
        71,
        366,
        251,
        446,
        58,
        412,
        319,
        318,
        467,
        342,
        284,
        340,
        198,
        106,
        291,
        83,
        334,
        352,
        486,
        395,
        236,
        406,
        186,
        57,
        51,
        212,
        491,
        376,
        328,
        206,
        72,
        485,
        278
    ],
    "Global Optimum": 0,
    "Algorithm": "Genetic algorithm",
    "Parameters": {
        "population": 30,
        "offspring": 30,
        "mutation probability": 0.002,
        "crossover probability": 0.9
    },
    "Fitness": 665236,
    "Solution": [
        381,
        298,
        7,
        81,
        365,
        100,
        182,
        478,
        308,
        287,
        89,
        471,
        301,
        104,
        55,
        450,
        321,
        282,
        480,
        484,
        35,
        189,
        151,
        429,
        29,
        195,
        185,
        415,
        345,
        324,
        258,
        187,
        213,
        442,
        368,
        118,
        428,
        439,
        353,
        435,
        163,
        394,
        117,
        17,
        68,
        457,
        107,
        391,
        109,
        264,
        224,
        155,
        44,
        343,
        397,
        482,
        170,
        266,
        147,
        24,
        188,
        179,
        422,
        128,
        240,
        138,
        92,
        244,
        50,
        290,
        465,
        53,
        268,
        43,
        80,
        477,
        408,
        70,
        407,
        351,
        438,
        447,
        121,
        377,
        493,
        303,
        54,
        460,
        255,
        221,
        228,
        64,
        331,
        173,
        315,
        76,
        145,
        399,
        454,
        358,
        322,
        209,
        259,
        21,
        165,
        389,
        329,
        61,
        354,
        115,
        433,
        265,
        144,
        458,
        250,
        137,
        299,
        143,
        401,
        139,
        361,
        28,
        217,
        420,
        79,
        293,
        459,
        215,
        403,
        382,
        248,
        472,
        390,
        11,
        207,
        274,
        210,
        67,
        235,
        405,
        49,
        162,
        272,
        142,
        82,
        295,
        375,
        300,
        288,
        140,
        332,
        430,
        402,
        234,
        306,
        466,
        4,
        126,
        330,
        348,
        325,
        271,
        286,
        169,
        432,
        474,
        310,
        426,
        73,
        388,
        339,
        42,
        347,
        90,
        245,
        59,
        387,
        242,
        483,
        285,
        9,
        327,
        202,
        338,
        254,
        386,
        247,
        479,
        238,
        305,
        177,
        292,
        86,
        103,
        445,
        141,
        74,
        105,
        77,
        270,
        178,
        252,
        219,
        400,
        193,
        191,
        41,
        65,
        499,
        2,
        211,
        253,
        495,
        349,
        192,
        223,
        231,
        12,
        201,
        333,
        222,
        359,
        110,
        490,
        356,
        18,
        159,
        38,
        489,
        473,
        373,
        119,
        95,
        168,
        314,
        267,
        307,
        279,
        294,
        312,
        273,
        441,
        6,
        379,
        463,
        437,
        99,
        464,
        131,
        197,
        196,
        46,
        113,
        425,
        23,
        444,
        413,
        243,
        262,
        468,
        161,
        341,
        148,
        56,
        423,
        62,
        8,
        419,
        66,
        309,
        27,
        63,
        424,
        98,
        452,
        226,
        120,
        427,
        75,
        45,
        203,
        360,
        13,
        498,
        418,
        304,
        146,
        475,
        326,
        257,
        69,
        205,
        384,
        116,
        232,
        125,
        451,
        497,
        156,
        114,
        494,
        93,
        200,
        108,
        461,
        263,
        260,
        378,
        32,
        16,
        481,
        275,
        124,
        60,
        456,
        476,
        249,
        371,
        10,
        36,
        133,
        153,
        448,
        172,
        455,
        233,
        181,
        1,
        302,
        3,
        230,
        34,
        297,
        132,
        383,
        154,
        469,
        85,
        134,
        311,
        150,
        296,
        91,
        33,
        158,
        5,
        350,
        355,
        199,
        436,
        19,
        135,
        470,
        396,
        337,
        52,
        392,
        364,
        335,
        87,
        40,
        367,
        164,
        313,
        167,
        449,
        149,
        152,
        136,
        370,
        174,
        317,
        26,
        256,
        276,
        281,
        269,
        411,
        130,
        369,
        280,
        160,
        180,
        20,
        220,
        48,
        175,
        434,
        176,
        261,
        216,
        421,
        157,
        88,
        246,
        31,
        443,
        277,
        101,
        414,
        39,
        190,
        487,
        183,
        344,
        204,
        416,
        374,
        362,
        112,
        323,
        227,
        393,
        47,
        320,
        208,
        214,
        237,
        127,
        462,
        289,
        431,
        404,
        22,
        283,
        409,
        102,
        94,
        492,
        453,
        78,
        84,
        96,
        372,
        410,
        129,
        111,
        225,
        357,
        14,
        363,
        184,
        496,
        398,
        166,
        417,
        239,
        488,
        122,
        30,
        380,
        316,
        171,
        241,
        336,
        123,
        25,
        194,
        37,
        15,
        97,
        346,
        229,
        385,
        440,
        0,
        218,
        71,
        366,
        251,
        446,
        58,
        412,
        319,
        318,
        467,
        342,
        284,
        340,
        198,
        106,
        291,
        83,
        334,
        352,
        486,
        395,
        236,
        406,
        186,
        57,
        51,
        212,
        491,
        376,
        328,
        206,
        72,
        485,
        278
    ],
    "Nb of functions evaluations": 50010,
    "Computational time in seconds": 363.40561985969543,
    "Stopping criterion in evaluations": 50000
}